5 5
3 86 4 4 0 2 2 67 1 30
3 4 2 48 4 43 0 93 1 45
2 97 3 13 4 47 0 96 1 28
4 37 3 28 2 27 1 89 0 30
0 6 1 94 3 9 4 6 2 29
-1
0 1 2 5
0 2 4 5
0 1 2 3 5
0 1 2 3 5
0 1 4 5
-2
126 133 302
65 276 262
146 148 248 386
42 78 131 288
8 170 207

368 7
20 2 8 13 19
21 18 9 4 14
6 10 17 24 3
5 0 16 22 11
15 1 7 23 12
